p cnf 818 855
a 1 2 3 4 5 6 7 8 9 10 11 12 13 14 15 16 17 18 19 20 21 22 23 24 25 26 27 28 29 30 31 32 33 34 35 36 37 38 39 40 41 42 43 44 45 46 47 48 49 50 51 52 53 54 55 56 57 58 59 60 61 62 63 64 65 66 67 68 69 70 71 72 73 74 75 76 77 78 79 80 81 82 83 84 85 0
d 86 1 2 3 4 5 6 7 8 9 10 11 12 13 14 15 16 17 18 19 20 21 22 23 24 25 26 27 28 29 30 31 32 33 34 35 36 37 38 39 40 41 42 43 44 45 46 47 48 0
d 87 1 2 3 4 5 6 7 8 9 10 11 12 13 14 15 16 17 18 19 20 21 22 23 24 25 26 27 28 29 30 31 32 33 34 35 36 37 38 39 40 41 42 43 44 45 46 47 48 0
d 88 1 2 3 4 5 6 7 8 9 10 11 12 13 14 15 16 17 18 19 20 21 22 23 24 25 26 27 28 29 30 31 32 33 34 35 36 37 38 39 40 41 42 43 44 45 46 47 48 0
d 89 1 2 3 4 5 6 7 8 9 10 11 12 13 14 15 16 17 18 19 20 21 22 23 24 25 26 27 28 29 30 31 32 33 34 35 36 37 38 39 40 41 42 43 44 45 46 47 48 0
d 90 1 2 3 4 5 6 7 8 9 10 11 12 13 14 15 16 17 18 19 20 21 22 23 24 25 26 27 28 29 30 31 32 33 34 35 36 37 38 39 40 41 42 43 44 45 46 47 48 0
d 91 1 2 3 4 5 6 7 8 9 10 11 12 13 14 15 16 17 18 19 20 21 22 23 24 25 26 27 28 29 30 31 32 33 34 35 36 37 38 39 40 41 42 43 44 45 46 47 48 0
d 92 1 2 3 4 5 6 7 8 9 10 11 12 13 14 15 16 17 18 19 20 21 22 23 24 25 26 27 28 29 30 31 32 33 34 35 36 37 38 39 40 41 42 43 44 45 46 47 48 0
d 93 1 2 3 4 5 6 7 8 9 10 11 12 13 14 15 16 17 18 19 20 21 22 23 24 25 26 27 28 29 30 31 32 33 34 35 36 37 38 39 40 41 42 43 44 45 46 47 48 0
d 94 1 2 3 4 5 6 7 8 9 10 11 12 13 14 15 16 17 18 19 20 21 22 23 24 25 26 27 28 29 30 31 32 33 34 35 36 37 38 39 40 41 42 43 44 45 46 47 48 0
d 95 1 2 3 4 5 6 7 8 9 10 11 12 13 14 15 16 17 18 19 20 21 22 23 24 25 26 27 28 29 30 31 32 33 34 35 36 37 38 39 40 41 42 43 44 45 46 47 48 0
d 96 1 2 3 4 5 6 7 8 9 10 11 12 13 14 15 16 17 18 19 20 21 22 23 24 25 26 27 28 29 30 31 32 33 34 35 36 37 38 39 40 41 42 43 44 45 46 47 48 0
d 97 1 2 3 4 5 6 7 8 9 10 11 12 13 14 15 16 17 18 19 20 21 22 23 24 25 26 27 28 29 30 31 32 33 34 35 36 37 38 39 40 41 42 43 44 45 46 47 48 0
d 98 1 2 3 4 5 6 7 8 9 10 11 12 13 14 15 16 17 18 19 20 21 22 23 24 25 26 27 28 29 30 31 32 33 34 35 36 37 38 39 40 41 42 43 44 45 46 47 48 0
d 99 1 2 3 4 5 6 7 8 9 10 11 12 13 14 15 16 17 18 19 20 21 22 23 24 25 26 27 28 29 30 31 32 33 34 35 36 37 38 39 40 41 42 43 44 45 46 47 48 0
d 100 12 13 14 15 16 17 18 19 20 21 22 23 24 25 26 27 28 29 30 31 32 33 34 35 36 37 38 39 40 41 42 43 44 45 46 47 48 0
d 101 49 50 51 52 53 54 55 56 57 58 59 60 61 62 63 64 65 66 67 68 69 70 71 72 73 74 75 76 77 78 79 80 81 82 83 84 85 0
e 102 103 120 135 142 145 148 152 153 155 156 159 160 162 163 183 198 213 215 216 218 219 222 223 225 226 230 231 250 253 254 271 272 273 276 281 283 285 288 290 293 295 298 300 303 305 308 310 313 339 355 358 377 381 388 395 402 409 415 421 427 431 436 456 459 462 468 469 471 472 475 476 478 479 499 514 515 516 518 519 525 526 544 560 561 563 564 575 576 582 583 588 614 615 617 0
-85 -102 0
48 -102 0
-48 85 102 0
85 -103 0
-48 -103 0
48 -85 103 0
-103 -120 0
44 45 46 47 81 82 83 84 102 103 120 0
44 45 -46 47 81 82 -83 84 102 103 120 0
44 -45 46 47 81 -82 83 84 102 103 120 0
-44 -45 46 -47 -81 -82 83 -84 102 103 120 0
44 45 -46 -47 81 82 -83 -84 102 103 120 0
44 -45 46 -47 81 -82 83 -84 102 103 120 0
-44 -45 -46 -47 -81 -82 -83 -84 102 103 120 0
44 -45 -46 -47 81 -82 -83 -84 102 103 120 0
-44 45 46 -47 -81 82 83 -84 102 103 120 0
-102 -120 0
-44 45 46 47 -81 82 83 84 102 103 120 0
-44 45 -46 47 -81 82 -83 84 102 103 120 0
-44 45 -46 -47 -81 82 -83 -84 102 103 120 0
44 45 46 -47 81 82 83 -84 102 103 120 0
-44 -45 -46 47 -81 -82 -83 84 102 103 120 0
44 -45 -46 47 81 -82 -83 84 102 103 120 0
-44 -45 46 47 -81 -82 83 84 102 103 120 0
12 13 14 -15 49 50 51 -52 135 0
-12 49 -135 0
12 13 -14 -15 49 50 -51 -52 135 0
12 -49 -135 0
-12 -13 14 15 -49 -50 51 52 135 0
12 13 -14 15 49 50 -51 52 135 0
12 -13 14 15 49 -50 51 52 135 0
-12 -13 -14 15 -49 -50 -51 52 135 0
12 -13 -14 15 49 -50 -51 52 135 0
-13 50 -135 0
-12 13 14 15 -49 50 51 52 135 0
13 -50 -135 0
-12 -13 -14 -15 -49 -50 -51 -52 135 0
12 -13 -14 -15 49 -50 -51 -52 135 0
-12 13 14 -15 -49 50 51 -52 135 0
-12 13 -14 15 -49 50 -51 52 135 0
12 13 14 15 49 50 51 52 135 0
-14 51 -135 0
-12 -13 14 -15 -49 -50 51 -52 135 0
14 -51 -135 0
12 -13 14 -15 49 -50 51 -52 135 0
-12 13 -14 -15 -49 50 -51 -52 135 0
-15 52 -135 0
15 -52 -135 0
16 -17 53 -54 142 0
-16 53 -142 0
-16 -17 -53 -54 142 0
16 -53 -142 0
-16 17 -53 54 142 0
16 17 53 54 142 0
-17 54 -142 0
17 -54 -142 0
-18 -55 145 0
-18 55 -145 0
18 -55 -145 0
18 55 145 0
-19 -56 148 0
-19 56 -148 0
19 -56 -148 0
19 56 148 0
148 -183 0
24 25 26 27 61 62 63 64 -135 -142 -145 -148 152 153 155 156 159 160 162 163 183 0
24 25 26 -27 61 62 63 -64 -135 -142 -145 -148 152 153 155 156 159 160 162 163 183 0
24 25 -26 27 61 62 -63 64 -135 -142 -145 -148 152 153 155 156 159 160 162 163 183 0
-57 -152 0
20 -152 0
-20 57 152 0
57 -153 0
-20 -153 0
20 -57 153 0
-153 -183 0
24 25 -26 -27 61 62 -63 -64 -135 -142 -145 -148 152 153 155 156 159 160 162 163 183 0
-58 -155 0
21 -155 0
-21 58 155 0
58 -156 0
-21 -156 0
21 -58 156 0
-156 -183 0
24 -25 26 27 61 -62 63 64 -135 -142 -145 -148 152 153 155 156 159 160 162 163 183 0
24 -25 26 -27 61 -62 63 -64 -135 -142 -145 -148 152 153 155 156 159 160 162 163 183 0
-59 -159 0
22 -159 0
-22 59 159 0
59 -160 0
-22 -160 0
22 -59 160 0
-160 -183 0
24 -25 -26 27 61 -62 -63 64 -135 -142 -145 -148 152 153 155 156 159 160 162 163 183 0
-60 -162 0
23 -162 0
-23 60 162 0
60 -163 0
-23 -163 0
23 -60 163 0
-163 -183 0
24 -25 -26 -27 61 -62 -63 -64 -135 -142 -145 -148 152 153 155 156 159 160 162 163 183 0
-24 25 26 27 -61 62 63 64 -135 -142 -145 -148 152 153 155 156 159 160 162 163 183 0
-24 25 26 -27 -61 62 63 -64 -135 -142 -145 -148 152 153 155 156 159 160 162 163 183 0
-24 25 -26 -27 -61 62 -63 -64 -135 -142 -145 -148 152 153 155 156 159 160 162 163 183 0
-24 -25 26 -27 -61 -62 63 -64 -135 -142 -145 -148 152 153 155 156 159 160 162 163 183 0
-159 -183 0
-24 -25 26 27 -61 -62 63 64 -135 -142 -145 -148 152 153 155 156 159 160 162 163 183 0
-24 -25 -26 27 -61 -62 -63 64 -135 -142 -145 -148 152 153 155 156 159 160 162 163 183 0
145 -183 0
135 -183 0
142 -183 0
-152 -183 0
-155 -183 0
-24 25 -26 27 -61 62 -63 64 -135 -142 -145 -148 152 153 155 156 159 160 162 163 183 0
-162 -183 0
-24 -25 -26 -27 -61 -62 -63 -64 -135 -142 -145 -148 152 153 155 156 159 160 162 163 183 0
28 29 30 -31 65 66 67 -68 198 0
28 29 -30 -31 65 66 -67 -68 198 0
-28 -29 30 31 -65 -66 67 68 198 0
28 29 -30 31 65 66 -67 68 198 0
28 -29 30 31 65 -66 67 68 198 0
-28 -29 -30 31 -65 -66 -67 68 198 0
28 -29 -30 31 65 -66 -67 68 198 0
-28 29 30 31 -65 66 67 68 198 0
-28 -29 -30 -31 -65 -66 -67 -68 198 0
28 -29 -30 -31 65 -66 -67 -68 198 0
-28 29 30 -31 -65 66 67 -68 198 0
-28 29 -30 31 -65 66 -67 68 198 0
28 29 30 31 65 66 67 68 198 0
-28 -29 30 -31 -65 -66 67 -68 198 0
28 -29 30 -31 65 -66 67 -68 198 0
-28 29 -30 -31 -65 66 -67 -68 198 0
32 33 34 -35 69 70 71 -72 213 0
32 33 -34 -35 69 70 -71 -72 213 0
-32 -33 34 35 -69 -70 71 72 213 0
32 33 -34 35 69 70 -71 72 213 0
32 -33 34 35 69 -70 71 72 213 0
-32 -33 -34 35 -69 -70 -71 72 213 0
32 -33 -34 35 69 -70 -71 72 213 0
-32 33 34 35 -69 70 71 72 213 0
-32 -33 -34 -35 -69 -70 -71 -72 213 0
32 -33 -34 -35 69 -70 -71 -72 213 0
-32 33 34 -35 -69 70 71 -72 213 0
-32 33 -34 35 -69 70 -71 72 213 0
32 33 34 35 69 70 71 72 213 0
-32 -33 34 -35 -69 -70 71 -72 213 0
32 -33 34 -35 69 -70 71 -72 213 0
-32 33 -34 -35 -69 70 -71 -72 213 0
-12 -14 17 44 47 271 272 273 276 281 283 285 288 290 293 295 298 300 303 305 308 310 313 339 0
41 42 43 78 79 80 -120 -183 -198 -213 215 216 218 219 222 223 225 226 230 231 -250 0
-73 -215 0
36 -215 0
73 -216 0
-36 -216 0
41 42 43 78 79 80 100 -101 -120 -183 -198 -213 215 216 218 219 222 223 225 226 230 231 0
-74 -218 0
37 -218 0
74 -219 0
-37 -219 0
41 42 -43 78 79 -80 -120 -183 -198 -213 215 216 218 219 222 223 225 226 230 231 -250 0
41 42 -43 78 79 -80 100 -101 -120 -183 -198 -213 215 216 218 219 222 223 225 226 230 231 0
-75 -222 0
38 -222 0
75 -223 0
-38 -223 0
41 -42 43 78 -79 80 -120 -183 -198 -213 215 216 218 219 222 223 225 226 230 231 -250 0
-76 -225 0
39 -225 0
76 -226 0
-39 -226 0
41 -42 43 78 -79 80 100 -101 -120 -183 -198 -213 215 216 218 219 222 223 225 226 230 231 0
41 -42 -43 78 -79 -80 -120 -183 -198 -213 215 216 218 219 222 223 225 226 230 231 -250 0
41 -42 -43 78 -79 -80 100 -101 -120 -183 -198 -213 215 216 218 219 222 223 225 226 230 231 0
-77 -230 0
40 -230 0
77 -231 0
-40 -231 0
-41 42 43 -78 79 80 -120 -183 -198 -213 215 216 218 219 222 223 225 226 230 231 -250 0
-41 42 -43 -78 79 -80 -120 -183 -198 -213 215 216 218 219 222 223 225 226 230 231 -250 0
-41 42 43 -78 79 80 100 -101 -120 -183 -198 -213 215 216 218 219 222 223 225 226 230 231 0
-41 -42 43 -78 -79 80 -120 -183 -198 -213 215 216 218 219 222 223 225 226 230 231 -250 0
-41 42 -43 -78 79 -80 100 -101 -120 -183 -198 -213 215 216 218 219 222 223 225 226 230 231 0
-41 -42 43 -78 -79 80 100 -101 -120 -183 -198 -213 215 216 218 219 222 223 225 226 230 231 0
-41 -42 -43 -78 -79 -80 -120 -183 -198 -213 215 216 218 219 222 223 225 226 230 231 -250 0
-41 -42 -43 -78 -79 -80 100 -101 -120 -183 -198 -213 215 216 218 219 222 223 225 226 230 231 0
-101 -250 0
100 -250 0
-100 101 250 0
-85 -253 0
11 -253 0
-11 85 253 0
85 -254 0
-11 -254 0
11 -85 254 0
-254 -355 0
2 3 -81 82 -83 84 -94 253 254 339 355 0
-12 -44 -339 0
-2 -12 -14 17 44 271 272 273 276 281 283 285 288 290 293 295 298 300 303 305 308 310 313 339 0
1 7 12 -271 0
-12 -18 37 71 525 0
1 -12 -18 27 37 271 0
1 -7 -12 18 -30 -271 0
-1 7 -12 -18 30 -271 0
7 -12 -27 -30 -37 271 0
7 -12 27 -30 37 271 0
-7 -27 30 -37 271 0
-7 27 30 37 271 0
1 7 18 30 -271 0
-7 12 271 0
-12 -34 37 -526 0
-37 -71 526 0
12 -71 526 0
-12 27 -37 -271 0
1 -12 -27 37 273 0
-12 -27 37 -271 0
-37 -273 0
-1 18 27 37 271 0
-27 -272 0
7 -272 0
-12 -18 37 -526 0
12 -272 0
-1 -273 0
27 -273 0
12 -273 0
-12 -15 -96 -100 -339 0
-10 -11 -100 -339 0
10 -12 -15 86 -100 -339 0
14 -276 0
15 -276 0
12 -276 0
-14 20 -468 0
-10 14 -339 0
10 12 271 283 339 0
-10 -12 14 20 -46 -49 50 -51 -52 -96 377 0
2 -12 -14 44 47 271 272 273 276 281 283 285 288 290 293 295 298 300 303 305 308 310 313 339 0
12 -86 -100 -339 0
-12 -48 -94 -100 -339 0
15 48 -86 -100 -339 0
-10 48 -86 -100 -339 0
11 -12 -48 86 -100 -339 0
46 -281 0
48 -281 0
12 -281 0
10 -12 -13 -20 -49 -50 -51 52 -96 358 377 0
-12 -46 -283 0
-10 14 46 -49 -50 51 -52 96 377 0
11 -283 0
-10 -12 -13 46 -49 -50 51 -52 96 358 377 0
12 50 -377 0
42 -95 98 -100 -339 0
-9 -12 -42 285 0
14 46 50 -377 0
9 -285 0
42 -95 -97 -100 -339 0
-12 -22 -42 95 -100 -339 0
42 87 -95 -100 -339 0
9 -12 -22 42 288 0
22 -288 0
-9 22 -95 -100 -339 0
10 14 46 -49 -50 -51 52 -96 377 0
-9 -288 0
14 -358 0
-42 -288 0
32 -93 -98 -100 -339 0
-8 -12 -32 290 0
-10 14 46 -49 -50 -51 -52 -96 377 0
8 -290 0
32 -93 97 -100 -339 0
-12 -25 -32 93 -100 -339 0
32 87 -93 -100 -339 0
8 -12 -25 32 293 0
25 -293 0
-8 25 -93 -100 -339 0
-8 -293 0
-32 -293 0
28 -92 -98 -100 -339 0
-6 -12 -28 295 0
6 -295 0
28 -92 -97 -100 -339 0
-12 -28 -29 92 -100 -339 0
28 87 -92 -100 -339 0
6 -12 28 -29 298 0
29 -298 0
-6 29 -92 -100 -339 0
-6 -298 0
-28 -298 0
24 -91 98 -100 -339 0
-5 -12 -24 300 0
5 -300 0
24 -91 97 -100 -339 0
-12 -24 -33 91 -100 -339 0
24 87 -91 -100 -339 0
5 -12 24 -33 303 0
33 -303 0
-5 33 -91 -100 -339 0
-5 -303 0
-24 -303 0
12 -90 617 0
-4 -12 -21 305 0
4 -305 0
21 -305 0
-12 -21 -617 0
12 -90 -100 -339 0
4 -12 21 -43 308 0
43 -308 0
-4 43 -90 -100 -339 0
12 -100 -339 -617 0
-4 -308 0
-21 -308 0
12 -89 614 0
-3 -12 -19 310 0
3 -310 0
19 -310 0
-12 -19 -614 0
12 -89 -100 -339 0
3 -12 19 -45 313 0
45 -313 0
-3 45 -89 -100 -339 0
12 -100 -339 -614 0
-3 -313 0
-19 -313 0
10 17 44 47 271 272 273 276 281 283 285 288 290 293 295 298 300 303 305 308 310 313 339 0
-12 -17 -47 88 -100 -339 0
2 -12 -14 -17 44 271 272 273 276 281 283 285 288 290 293 295 298 300 303 305 308 310 313 339 0
12 -88 615 0
12 -100 -339 -615 0
2 -12 17 -47 -339 0
47 -100 -339 -615 0
12 -88 -100 -339 0
2 10 -17 44 271 272 273 276 281 283 285 288 290 293 295 298 300 303 305 308 310 313 339 0
2 10 44 47 271 272 273 276 281 283 285 288 290 293 295 298 300 303 305 308 310 313 339 0
-313 -339 0
-310 -339 0
-308 -339 0
-305 -339 0
-303 -339 0
-300 -339 0
-298 -339 0
-295 -339 0
-293 -339 0
-290 -339 0
-288 -339 0
-285 -339 0
-283 -339 0
-281 -339 0
-276 -339 0
-273 -339 0
-272 -339 0
-271 -339 0
2 3 -81 82 83 84 94 253 254 339 355 0
2 -3 -81 -82 -83 84 -94 253 254 339 355 0
-2 -3 81 -82 -83 -84 -94 253 254 -339 355 0
-2 3 -81 82 83 -84 94 253 254 339 355 0
-2 -3 -81 -82 -83 -84 -94 253 254 339 355 0
-2 -3 81 -82 83 -84 94 253 254 -339 355 0
-2 -3 -81 -82 83 -84 94 253 254 339 355 0
-2 3 81 82 -83 -84 -94 253 254 -339 355 0
-253 -355 0
2 3 81 82 -83 84 -94 253 254 -339 355 0
2 3 81 82 83 84 94 253 254 -339 355 0
-2 3 81 82 83 -84 94 253 254 -339 355 0
-2 3 -81 82 -83 -84 -94 253 254 339 355 0
2 -3 81 -82 83 84 94 253 254 -339 355 0
2 -3 -81 -82 83 84 94 253 254 339 355 0
2 -3 81 -82 -83 84 -94 253 254 -339 355 0
12 -57 469 0
-12 -20 358 -469 0
20 -358 0
-13 46 50 358 -377 0
12 -468 0
10 -12 14 20 -46 -49 50 51 52 96 377 0
-46 -358 0
10 -12 -13 -20 -49 -50 51 52 96 358 377 0
10 12 -49 -50 -51 52 -96 377 0
-12 -46 48 94 -100 -339 0
-2 10 17 44 271 272 273 276 281 283 285 288 290 293 295 298 300 303 305 308 310 313 339 0
-10 -12 14 20 -46 -49 50 51 -52 96 377 0
10 -12 -13 46 -49 -50 51 52 96 358 377 0
-10 -12 13 -14 -49 50 -51 -52 -96 377 0
-12 13 -14 -50 -377 0
-12 -13 -20 50 358 -377 0
10 -12 -13 -14 -49 -50 51 52 96 358 377 0
-12 -13 -14 50 358 -377 0
-11 12 283 0
-10 12 -49 -50 51 -52 96 377 0
-12 -14 15 96 -100 -339 0
-10 -12 -13 -14 -49 -50 51 -52 96 358 377 0
10 -12 14 20 -46 -49 50 -51 52 -96 377 0
-11 46 283 0
10 -12 13 -46 -49 50 51 52 96 377 0
10 -49 50 -51 52 -96 -358 377 0
-10 -12 -13 -20 -49 -50 51 -52 96 358 377 0
-10 -12 -13 46 -49 -50 -51 -52 -96 358 377 0
-10 -12 13 -14 -49 50 51 -52 96 377 0
10 -12 13 -14 -49 50 -51 52 -96 377 0
-10 -12 13 -46 -49 50 51 -52 96 377 0
-50 -358 -377 0
-10 -49 50 -51 -52 -96 -358 377 0
10 -12 13 -46 -49 50 -51 52 -96 377 0
-12 14 20 -46 -50 -377 0
10 -49 50 51 52 96 -358 377 0
10 12 -49 -50 51 52 96 377 0
-10 -12 13 -46 -49 50 -51 -52 -96 377 0
-10 -49 50 51 -52 96 -358 377 0
10 -12 13 -14 -49 50 51 52 96 377 0
10 14 46 -49 -50 51 52 96 377 0
51 -96 -377 0
-10 -12 -13 -20 -49 -50 -51 -52 -96 358 377 0
49 -377 0
-51 96 -377 0
-10 -12 -13 -14 -49 -50 -51 -52 -96 358 377 0
20 46 -468 0
-10 12 -339 0
-10 52 -377 0
10 -52 -377 0
10 -12 -13 46 -49 -50 -51 52 -96 358 377 0
12 -358 0
2 -88 -388 0
2 12 88 388 0
-2 88 -388 0
41 -381 0
12 -381 0
-12 -41 381 0
12 -415 0
-40 -395 0
12 -409 0
40 -431 0
39 -427 0
40 409 588 0
12 -402 0
39 395 421 -582 0
12 -395 0
-12 -39 -388 0
6 -12 38 39 -40 92 381 415 0
39 -431 0
-40 -409 0
2 38 39 40 88 381 388 0
12 588 0
-381 -388 0
-12 -38 395 409 421 431 -576 0
-3 89 -395 0
3 -89 -395 0
-39 -395 0
-12 -40 431 -588 0
12 388 -575 0
-39 -421 0
8 -12 -38 39 -40 93 381 421 0
-381 -395 0
-4 -12 38 -39 40 -90 381 402 0
-4 90 -402 0
4 -90 -402 0
-38 -402 0
-6 -12 38 39 -40 -92 381 415 0
-38 -427 0
-8 -12 -38 39 -40 -93 381 421 0
-381 -402 0
-12 -39 409 431 -583 0
-5 91 -409 0
5 -91 -409 0
38 -409 0
-5 -12 -38 -39 40 -91 381 409 0
12 -582 0
38 -431 0
-12 34 -38 -39 -40 381 431 0
-381 -409 0
38 388 402 415 427 -575 0
-6 92 -415 0
6 -92 -415 0
-12 -38 -388 0
38 -421 0
-3 -12 -38 39 40 -89 381 395 0
-381 -415 0
-2 38 39 40 -88 381 388 0
-8 93 -421 0
8 -93 -421 0
38 -395 0
-38 -415 0
40 -415 0
-381 -421 0
5 -12 -38 -39 40 91 381 409 0
-9 95 -427 0
9 -95 -427 0
39 -402 0
-39 -415 0
40 -421 0
-381 -427 0
-1 12 271 0
-34 -431 0
4 -12 38 -39 40 90 381 402 0
9 -12 38 -39 -40 95 381 427 0
40 -427 0
37 -272 0
-381 -431 0
-11 12 53 54 88 94 456 0
-12 -16 -53 54 88 388 395 402 409 415 421 427 431 436 456 0
11 16 -53 -94 -456 0
12 -436 0
10 -96 -436 0
11 16 53 54 88 -94 456 0
-10 96 -436 0
11 16 53 -54 -88 -94 456 0
11 12 -53 -94 -456 0
10 -12 -16 96 436 0
-11 -53 -54 -88 -94 388 395 402 409 415 421 427 431 436 456 0
-11 16 -53 94 -456 0
11 53 94 388 395 402 409 415 421 427 431 436 -456 0
11 12 53 -54 -88 -94 456 0
-11 16 53 54 88 94 456 0
11 -53 -54 -88 94 388 395 402 409 415 421 427 431 436 456 0
-11 -53 54 88 -94 388 395 402 409 415 421 427 431 436 456 0
-10 -12 -16 -96 436 0
-11 53 -94 388 395 402 409 415 421 427 431 436 -456 0
-11 16 53 -54 -88 94 456 0
53 -54 -88 -436 456 0
-12 -16 53 388 395 402 409 415 421 427 431 436 -456 0
-12 -16 -53 -54 -88 388 395 402 409 415 421 427 431 436 456 0
53 -54 -88 -431 456 0
11 -53 54 88 94 388 395 402 409 415 421 427 431 436 456 0
16 -436 0
53 -54 -88 -427 456 0
11 12 53 54 88 -94 456 0
53 -54 -88 -421 456 0
-53 -436 -456 0
53 54 88 -436 456 0
53 -54 -88 -415 456 0
-53 -431 -456 0
53 54 88 -431 456 0
53 -54 -88 -409 456 0
-53 -427 -456 0
53 54 88 -427 456 0
53 -54 -88 -402 456 0
-53 -421 -456 0
53 54 88 -421 456 0
53 -54 -88 -395 456 0
-53 -415 -456 0
53 54 88 -415 456 0
53 -54 -88 -388 456 0
-53 -409 -456 0
53 54 88 -409 456 0
-53 -388 -456 0
-53 -402 -456 0
53 54 88 -402 456 0
53 54 88 -388 456 0
53 54 88 -395 456 0
-53 -395 -456 0
54 -88 -456 0
-54 88 -456 0
-1 -55 459 0
-1 55 -459 0
1 -55 -459 0
1 55 459 0
56 89 462 0
56 -89 -462 0
-56 89 -462 0
-56 -89 462 0
462 -499 0
8 -61 62 -63 -64 -87 -91 -98 -377 -456 -459 -462 468 469 471 472 475 476 478 479 499 0
8 -61 62 -63 64 87 -91 -98 -377 -456 -459 -462 468 469 471 472 475 476 478 479 499 0
8 -61 62 63 -64 -87 -91 98 -377 -456 -459 -462 468 469 471 472 475 476 478 479 499 0
-12 -20 57 358 468 0
-12 -14 -20 46 358 0
-57 -358 469 0
-12 14 20 -46 57 468 0
-57 -468 0
10 -12 -13 -14 -49 -50 -51 52 -96 358 377 0
-12 14 20 -46 -469 0
57 -469 0
-358 -468 0
-12 -14 20 -57 469 0
-469 -499 0
8 -61 62 63 64 87 -91 98 -377 -456 -459 -462 468 469 471 472 475 476 478 479 499 0
-58 -471 0
90 -471 0
58 -90 471 0
58 -472 0
-90 -472 0
-58 90 472 0
-472 -499 0
-8 -61 -62 -63 -64 -87 -91 -98 -377 -456 -459 -462 468 469 471 472 475 476 478 479 499 0
-8 -61 -62 -63 64 87 -91 -98 -377 -456 -459 -462 468 469 471 472 475 476 478 479 499 0
-59 -475 0
9 -475 0
-9 59 475 0
59 -476 0
-9 -476 0
9 -59 476 0
-476 -499 0
-8 -61 -62 63 -64 -87 -91 98 -377 -456 -459 -462 468 469 471 472 475 476 478 479 499 0
-60 -478 0
97 -478 0
60 -97 478 0
60 -479 0
-97 -479 0
-60 97 479 0
-479 -499 0
-8 -61 -62 63 64 87 -91 98 -377 -456 -459 -462 468 469 471 472 475 476 478 479 499 0
8 61 62 -63 -64 -87 91 -98 -377 -456 -459 -462 468 469 471 472 475 476 478 479 499 0
8 61 62 -63 64 87 91 -98 -377 -456 -459 -462 468 469 471 472 475 476 478 479 499 0
8 61 62 63 64 87 91 98 -377 -456 -459 -462 468 469 471 472 475 476 478 479 499 0
-8 61 -62 -63 64 87 91 -98 -377 -456 -459 -462 468 469 471 472 475 476 478 479 499 0
-475 -499 0
-8 61 -62 -63 -64 -87 91 -98 -377 -456 -459 -462 468 469 471 472 475 476 478 479 499 0
-8 61 -62 63 -64 -87 91 98 -377 -456 -459 -462 468 469 471 472 475 476 478 479 499 0
459 -499 0
377 -499 0
456 -499 0
-468 -499 0
-471 -499 0
8 61 62 63 -64 -87 91 98 -377 -456 -459 -462 468 469 471 472 475 476 478 479 499 0
-478 -499 0
-8 61 -62 63 64 87 91 98 -377 -456 -459 -462 468 469 471 472 475 476 478 479 499 0
6 7 -65 66 67 68 -92 99 514 0
6 -7 -65 66 -67 68 -92 99 514 0
-6 7 65 -66 67 -68 92 -99 514 0
6 -7 -65 66 -67 -68 -92 -99 514 0
-6 7 -65 -66 67 -68 -92 -99 514 0
-6 -7 65 -66 -67 -68 92 -99 514 0
-6 -7 -65 -66 -67 -68 -92 -99 514 0
6 7 65 66 67 -68 92 -99 514 0
-6 -7 65 -66 -67 68 92 99 514 0
-6 -7 -65 -66 -67 68 -92 99 514 0
6 7 65 66 67 68 92 99 514 0
6 -7 65 66 -67 -68 92 -99 514 0
6 7 -65 66 67 -68 -92 -99 514 0
-6 7 65 -66 67 68 92 99 514 0
-6 7 -65 -66 67 68 -92 99 514 0
6 -7 65 66 -67 68 92 99 514 0
-69 -515 0
93 -515 0
69 -93 515 0
69 -516 0
-93 -516 0
-69 93 516 0
-516 -544 0
72 -388 515 516 518 519 525 526 544 0
-70 -518 0
5 -518 0
-5 70 518 0
70 -519 0
-5 -519 0
5 -70 519 0
-519 -544 0
72 -395 515 516 518 519 525 526 544 0
72 -402 515 516 518 519 525 526 544 0
-1 18 -27 -37 271 0
1 -12 -18 -27 -37 271 0
18 34 -525 0
-37 -525 0
-12 -34 37 71 525 0
-71 -525 0
12 -525 0
18 34 -71 526 0
71 -526 0
-7 -12 27 -37 272 0
-1 -7 -12 -18 -30 -271 0
-526 -544 0
72 -409 515 516 518 519 525 526 544 0
-515 -544 0
35 -72 388 395 402 409 415 421 427 431 -436 515 516 518 519 525 526 544 0
35 72 436 515 516 518 519 525 526 544 0
12 72 515 516 518 519 526 544 0
-11 12 -53 94 -456 0
-35 72 -436 515 516 518 519 525 526 544 0
-12 -35 -72 388 395 402 409 415 421 427 431 436 515 516 518 519 525 526 544 0
72 -431 515 516 518 519 525 526 544 0
72 -427 515 516 518 519 525 526 544 0
72 -421 515 516 518 519 525 526 544 0
72 -415 515 516 518 519 525 526 544 0
4 -77 -78 -79 80 -95 -250 -355 -381 -499 -514 -544 560 561 563 564 575 576 582 583 588 0
-35 36 388 395 402 409 415 421 427 431 -436 -561 0
-525 -544 0
-518 -544 0
-12 -36 -100 -339 0
36 436 -560 0
-11 12 53 -54 -88 94 456 0
35 36 -560 0
-12 -36 388 395 402 409 415 421 427 431 436 -561 0
12 -560 0
-431 -560 0
-427 -560 0
-421 -560 0
-415 -560 0
-409 -560 0
-402 -560 0
-73 -560 0
-12 35 -36 388 395 402 409 415 421 427 431 -561 0
-395 -560 0
73 -561 0
-388 -560 0
-35 -36 -436 -560 0
-4 -77 -78 -79 -80 -95 -250 -355 -381 -499 -514 -544 560 561 563 564 575 576 582 583 588 0
-74 -563 0
86 -563 0
74 -564 0
-86 -564 0
4 -77 -78 79 80 95 -250 -355 -381 -499 -514 -544 560 561 563 564 575 576 582 583 588 0
-4 -77 -78 79 -80 95 -250 -355 -381 -499 -514 -544 560 561 563 564 575 576 582 583 588 0
12 -421 0
-12 -40 -388 0
395 409 421 -427 -576 0
388 402 415 427 -431 -575 0
395 409 -415 -576 0
39 -409 0
395 -402 -576 0
388 402 415 -421 -575 0
-388 -576 0
-75 -575 0
388 402 -409 -575 0
75 -576 0
388 -395 -575 0
4 -77 78 -79 80 -95 -250 -355 381 -499 -514 -544 560 561 563 564 575 576 582 583 588 0
12 -431 0
-9 -12 38 -39 -40 -95 381 427 0
409 -421 -583 0
395 421 -431 -582 0
-395 -583 0
-76 -582 0
12 -427 0
76 -583 0
395 -409 -582 0
-4 -77 78 -79 -80 -95 -250 -355 381 -499 -514 -544 560 561 563 564 575 576 582 583 588 0
4 -77 78 79 80 95 -250 -355 381 -499 -514 -544 560 561 563 564 575 576 582 583 588 0
-4 -77 78 79 -80 95 -250 -355 381 -499 -514 -544 560 561 563 564 575 576 582 583 588 0
409 -431 588 0
-40 -402 0
-409 -588 0
3 -12 -38 39 40 89 381 395 0
-4 77 -78 -79 -80 -95 -250 -355 -381 -499 -514 -544 560 561 563 564 575 576 582 583 -588 0
4 77 -78 -79 80 -95 -250 -355 -381 -499 -514 -544 560 561 563 564 575 576 582 583 -588 0
-4 77 -78 79 -80 95 -250 -355 -381 -499 -514 -544 560 561 563 564 575 576 582 583 -588 0
4 77 -78 79 80 95 -250 -355 -381 -499 -514 -544 560 561 563 564 575 576 582 583 -588 0
4 77 78 -79 80 -95 -250 -355 381 -499 -514 -544 560 561 563 564 575 576 582 583 -588 0
4 77 78 79 80 95 -250 -355 381 -499 -514 -544 560 561 563 564 575 576 582 583 -588 0
-4 77 78 -79 -80 -95 -250 -355 381 -499 -514 -544 560 561 563 564 575 576 582 583 -588 0
-4 77 78 79 -80 95 -250 -355 381 -499 -514 -544 560 561 563 564 575 576 582 583 -588 0
1 -86 -100 -339 0
-7 86 -87 -100 -339 0
-11 -281 0
-11 15 -86 -100 -339 0
-10 -276 0
89 -614 0
-12 -19 -45 89 -100 -339 0
19 -89 614 0
88 -615 0
-2 -12 -17 -339 0
17 -88 615 0
-87 91 92 93 95 -100 -339 614 615 617 0
90 -617 0
-12 -21 -43 90 -100 -339 0
21 -90 617 0
-12 -28 -42 -87 91 93 -100 -339 614 615 617 0
-12 -24 -32 -42 -87 92 -100 -339 614 615 617 0
12 -303 0
-12 -32 -42 -87 91 92 -100 -339 614 615 617 0
12 -290 0
-12 -24 -42 -87 92 93 -100 -339 614 615 617 0
12 -295 0
-12 -24 -28 -32 -42 -87 -100 -339 614 615 617 0
12 -298 0
-12 -24 -87 92 93 95 -100 -339 614 615 617 0
12 -285 0
-12 -24 -28 -87 93 95 -100 -339 614 615 617 0
12 -300 0
-12 -24 -28 -42 -87 93 -100 -339 614 615 617 0
12 -293 0
-12 -28 -32 -87 91 95 -100 -339 614 615 617 0
-12 -32 -87 91 92 95 -100 -339 614 615 617 0
-12 -28 -32 -42 -87 91 -100 -339 614 615 617 0
12 -288 0
-12 13 -46 -50 -377 0
-10 12 -49 -50 -51 -52 -96 377 0
-12 -13 -14 20 -100 -339 0
10 -12 -14 -15 276 0
-12 -14 -46 -100 -339 0
-12 -13 -20 -46 -100 -339 0
-12 -42 97 -98 -99 -100 -339 0
-12 -32 -97 98 -99 -100 -339 0
25 32 -93 -100 -339 0
-12 -28 97 98 -99 -100 -339 0
28 29 -92 -100 -339 0
-12 -24 -97 -98 99 -100 -339 0
24 33 -91 -100 -339 0
12 -305 0
12 -308 0
43 -100 -339 -617 0
12 -310 0
12 -313 0
45 -100 -339 -614 0
-12 -17 -615 0
-2 47 -88 -100 -339 0
-2 12 -88 388 0
-88 -90 -100 -339 0
-88 -89 -100 -339 0
-88 -91 -100 -339 0
-88 -92 -100 -339 0
-88 -93 -100 -339 0
-88 -95 -100 -339 0
-89 -91 -100 -339 0
-89 -90 -100 -339 0
-89 -92 -100 -339 0
-89 -93 -100 -339 0
-89 -95 -100 -339 0
-90 -92 -100 -339 0
-90 -91 -100 -339 0
-90 -93 -100 -339 0
-90 -95 -100 -339 0
-91 -93 -100 -339 0
-91 -92 -100 -339 0
-91 -95 -100 -339 0
-92 -95 -100 -339 0
-92 -93 -100 -339 0
22 42 -95 -100 -339 0
-93 -95 -100 -339 0
11 -12 -46 -48 281 0
-94 -96 -100 -339 0
-97 -100 -339 -615 0
-12 -24 -28 -32 -87 95 -100 -339 614 615 617 0
-98 -100 -339 -615 0
-99 -100 -339 -615 0
87 -100 -339 -615 0
97 -100 -339 -614 0
-12 -28 -87 91 93 95 -100 -339 614 615 617 0
-98 -100 -339 -614 0
-97 98 99 -100 -339 614 0
87 -100 -339 -614 0
-99 -100 -339 -614 0
93 -97 98 -99 -100 -339 0
-97 -100 -339 -617 0
-12 -42 -87 91 92 93 -100 -339 614 615 617 0
98 -100 -339 -617 0
97 -98 99 -100 -339 617 0
87 -100 -339 -617 0
-99 -100 -339 -617 0
95 97 -98 -99 -100 -339 0
12 -91 -100 -339 0
87 -98 99 -100 -339 0
-12 -24 -32 -87 92 95 -100 -339 614 615 617 0
24 -91 -99 -100 -339 0
24 -300 0
91 -97 -98 99 -100 -339 0
12 -92 -100 -339 0
92 97 98 -99 -100 -339 0
28 -92 99 -100 -339 0
28 -295 0
12 -93 -100 -339 0
87 -97 99 -100 -339 0
32 -93 99 -100 -339 0
32 -290 0
87 98 -99 -100 -339 0
12 -95 -100 -339 0
20 46 -57 469 0
42 -95 99 -100 -339 0
42 -285 0
87 97 -99 -100 -339 0
12 13 14 15 16 17 18 19 20 21 22 23 24 25 26 27 28 29 30 31 32 33 34 35 36 37 38 39 40 41 42 43 44 45 46 47 48 100 0
